7 7 2.7
3 2 1 247 2 223 3 4 140 2 130 7 123 3 4 150 5 160 7 200
3 2 1 214 3 150 3 3 87 2 66 4 99 3 5 178 6 95 7 150
3 2 1 87 2 62 3 7 145 3 180 4 105 3 4 190 5 100 6 153
3 2 1 87 2 65 2 3 250 5 173 2 4 145 6 136
3 3 2 123 3 145 1 128 3 7 86 4 65 5 47 2 5 110 6 85
3 3 2 145 3 320 4 154 3 4 150 3 123 5 192 3 5 120 6 240 7 180
3 3 3 145 2 210 1 157 3 3 124 4 168 5 154 3 5 145 6 165 7 178

27 1000000 1000000 10 1000000 1000000 13 1000000 1000000 16 1000000 1000000 14 1000000 1000000 1000000 1000000 1000000 15 1000000 1000000 
1000000 1000000 1000000 1000000 1000000 1000000 1000000 1000000 1000000 1000000 1000000 1000000 1000000 1000000 1000000 1000000 1000000 1000000 1000000 1000000 1000000 
1000000 1000000 1000000 1000000 1000000 1000000 1000000 1000000 1000000 1000000 1000000 1000000 1000000 1000000 1000000 1000000 1000000 1000000 1000000 1000000 1000000 
17 1000000 1000000 27 1000000 1000000 18 1000000 1000000 18 1000000 1000000 16 1000000 1000000 1000000 1000000 1000000 15 1000000 1000000 
1000000 1000000 1000000 1000000 1000000 1000000 1000000 1000000 1000000 1000000 1000000 1000000 1000000 1000000 1000000 1000000 1000000 1000000 1000000 1000000 1000000 
1000000 1000000 1000000 1000000 1000000 1000000 1000000 1000000 1000000 1000000 1000000 1000000 1000000 1000000 1000000 1000000 1000000 1000000 1000000 1000000 1000000 
17 1000000 1000000 18 1000000 1000000 30 1000000 1000000 14 1000000 1000000 18 1000000 1000000 1000000 1000000 1000000 17 1000000 1000000 
1000000 1000000 1000000 1000000 1000000 1000000 1000000 1000000 1000000 1000000 1000000 1000000 1000000 1000000 1000000 1000000 1000000 1000000 1000000 1000000 1000000 
1000000 1000000 1000000 1000000 1000000 1000000 1000000 1000000 1000000 1000000 1000000 1000000 1000000 1000000 1000000 1000000 1000000 1000000 1000000 1000000 1000000 
18 1000000 1000000 20 1000000 1000000 16 1000000 1000000 28 1000000 1000000 16 1000000 1000000 1000000 1000000 1000000 15 1000000 1000000 
1000000 1000000 1000000 1000000 1000000 1000000 1000000 1000000 1000000 1000000 1000000 1000000 1000000 1000000 1000000 1000000 1000000 1000000 1000000 1000000 1000000 
1000000 1000000 1000000 1000000 1000000 1000000 1000000 1000000 1000000 1000000 1000000 1000000 1000000 1000000 1000000 1000000 1000000 1000000 1000000 1000000 1000000 
15 1000000 1000000 17 1000000 1000000 14 1000000 1000000 15 1000000 1000000 26 1000000 1000000 1000000 1000000 1000000 14 1000000 1000000 
1000000 1000000 1000000 1000000 1000000 1000000 1000000 1000000 1000000 1000000 1000000 1000000 1000000 1000000 1000000 1000000 1000000 1000000 1000000 1000000 1000000 
1000000 1000000 1000000 1000000 1000000 1000000 1000000 1000000 1000000 1000000 1000000 1000000 1000000 1000000 1000000 1000000 1000000 1000000 1000000 1000000 1000000 
1000000 1000000 1000000 1000000 1000000 1000000 1000000 1000000 1000000 1000000 1000000 1000000 1000000 1000000 1000000 1000000 1000000 1000000 1000000 1000000 1000000 
1000000 1000000 1000000 1000000 1000000 1000000 1000000 1000000 1000000 1000000 1000000 1000000 1000000 1000000 1000000 1000000 1000000 1000000 1000000 1000000 1000000 
1000000 1000000 1000000 1000000 1000000 1000000 1000000 1000000 1000000 1000000 1000000 1000000 1000000 1000000 1000000 1000000 1000000 1000000 1000000 1000000 1000000 
12 1000000 1000000 18 1000000 1000000 15 1000000 1000000 13 1000000 1000000 12 1000000 1000000 1000000 1000000 1000000 26 1000000 1000000 
1000000 1000000 1000000 1000000 1000000 1000000 1000000 1000000 1000000 1000000 1000000 1000000 1000000 1000000 1000000 1000000 1000000 1000000 1000000 1000000 1000000 
1000000 1000000 1000000 1000000 1000000 1000000 1000000 1000000 1000000 1000000 1000000 1000000 1000000 1000000 1000000 1000000 1000000 1000000 1000000 1000000 1000000 
28 20 1000000 1000000 16 1000000 13 1000000 1000000 16 1000000 1000000 14 1000000 1000000 21 1000000 1000000 20 1000000 1000000 
21 21 1000000 1000000 11 1000000 15 1000000 1000000 15 1000000 1000000 19 1000000 1000000 19 1000000 1000000 13 1000000 1000000 
1000000 1000000 1000000 1000000 1000000 1000000 1000000 1000000 1000000 1000000 1000000 1000000 1000000 1000000 1000000 1000000 1000000 1000000 1000000 1000000 1000000 
1000000 1000000 1000000 1000000 1000000 1000000 1000000 1000000 1000000 1000000 1000000 1000000 1000000 1000000 1000000 1000000 1000000 1000000 1000000 1000000 1000000 
19 10 1000000 1000000 21 1000000 16 1000000 1000000 10 1000000 1000000 17 1000000 1000000 19 1000000 1000000 12 1000000 1000000 
1000000 1000000 1000000 1000000 1000000 1000000 1000000 1000000 1000000 1000000 1000000 1000000 1000000 1000000 1000000 1000000 1000000 1000000 1000000 1000000 1000000 
19 16 1000000 1000000 18 1000000 28 1000000 1000000 12 1000000 1000000 17 1000000 1000000 20 1000000 1000000 13 1000000 1000000 
1000000 1000000 1000000 1000000 1000000 1000000 1000000 1000000 1000000 1000000 1000000 1000000 1000000 1000000 1000000 1000000 1000000 1000000 1000000 1000000 1000000 
1000000 1000000 1000000 1000000 1000000 1000000 1000000 1000000 1000000 1000000 1000000 1000000 1000000 1000000 1000000 1000000 1000000 1000000 1000000 1000000 1000000 
17 17 1000000 1000000 19 1000000 18 1000000 1000000 26 1000000 1000000 12 1000000 1000000 20 1000000 1000000 14 1000000 1000000 
1000000 1000000 1000000 1000000 1000000 1000000 1000000 1000000 1000000 1000000 1000000 1000000 1000000 1000000 1000000 1000000 1000000 1000000 1000000 1000000 1000000 
1000000 1000000 1000000 1000000 1000000 1000000 1000000 1000000 1000000 1000000 1000000 1000000 1000000 1000000 1000000 1000000 1000000 1000000 1000000 1000000 1000000 
14 16 1000000 1000000 14 1000000 17 1000000 1000000 14 1000000 1000000 26 1000000 1000000 15 1000000 1000000 15 1000000 1000000 
1000000 1000000 1000000 1000000 1000000 1000000 1000000 1000000 1000000 1000000 1000000 1000000 1000000 1000000 1000000 1000000 1000000 1000000 1000000 1000000 1000000 
1000000 1000000 1000000 1000000 1000000 1000000 1000000 1000000 1000000 1000000 1000000 1000000 1000000 1000000 1000000 1000000 1000000 1000000 1000000 1000000 1000000 
16 17 1000000 1000000 11 1000000 14 1000000 1000000 19 1000000 1000000 15 1000000 1000000 26 1000000 1000000 13 1000000 1000000 
1000000 1000000 1000000 1000000 1000000 1000000 1000000 1000000 1000000 1000000 1000000 1000000 1000000 1000000 1000000 1000000 1000000 1000000 1000000 1000000 1000000 
1000000 1000000 1000000 1000000 1000000 1000000 1000000 1000000 1000000 1000000 1000000 1000000 1000000 1000000 1000000 1000000 1000000 1000000 1000000 1000000 1000000 
15 14 1000000 1000000 16 1000000 15 1000000 1000000 17 1000000 1000000 14 1000000 1000000 13 1000000 1000000 26 1000000 1000000 
1000000 1000000 1000000 1000000 1000000 1000000 1000000 1000000 1000000 1000000 1000000 1000000 1000000 1000000 1000000 1000000 1000000 1000000 1000000 1000000 1000000 
1000000 1000000 1000000 1000000 1000000 1000000 1000000 1000000 1000000 1000000 1000000 1000000 1000000 1000000 1000000 1000000 1000000 1000000 1000000 1000000 1000000 
1000000 1000000 1000000 1000000 1000000 1000000 1000000 1000000 1000000 1000000 1000000 1000000 1000000 1000000 1000000 1000000 1000000 1000000 1000000 1000000 1000000 
1000000 1000000 1000000 1000000 1000000 1000000 1000000 1000000 1000000 1000000 1000000 1000000 1000000 1000000 1000000 1000000 1000000 1000000 1000000 1000000 1000000 
1000000 1000000 1000000 1000000 1000000 1000000 1000000 1000000 1000000 1000000 1000000 1000000 1000000 1000000 1000000 1000000 1000000 1000000 1000000 1000000 1000000 
1000000 1000000 1000000 26 19 1000000 1000000 16 1000000 1000000 17 1000000 12 1000000 1000000 15 12 1000000 13 14 1000000 
1000000 1000000 1000000 16 27 1000000 1000000 17 1000000 1000000 17 1000000 15 1000000 1000000 21 15 1000000 18 15 1000000 
1000000 1000000 1000000 1000000 1000000 1000000 1000000 1000000 1000000 1000000 1000000 1000000 1000000 1000000 1000000 1000000 1000000 1000000 1000000 1000000 1000000 
1000000 1000000 1000000 1000000 1000000 1000000 1000000 1000000 1000000 1000000 1000000 1000000 1000000 1000000 1000000 1000000 1000000 1000000 1000000 1000000 1000000 
1000000 1000000 1000000 15 19 1000000 1000000 26 1000000 1000000 15 1000000 22 1000000 1000000 17 18 1000000 14 17 1000000 
1000000 1000000 1000000 1000000 1000000 1000000 1000000 1000000 1000000 1000000 1000000 1000000 1000000 1000000 1000000 1000000 1000000 1000000 1000000 1000000 1000000 
1000000 1000000 1000000 1000000 1000000 1000000 1000000 1000000 1000000 1000000 1000000 1000000 1000000 1000000 1000000 1000000 1000000 1000000 1000000 1000000 1000000 
1000000 1000000 1000000 15 17 1000000 1000000 17 1000000 1000000 29 1000000 13 1000000 1000000 21 13 1000000 13 14 1000000 
1000000 1000000 1000000 1000000 1000000 1000000 1000000 1000000 1000000 1000000 1000000 1000000 1000000 1000000 1000000 1000000 1000000 1000000 1000000 1000000 1000000 
1000000 1000000 1000000 14 17 1000000 1000000 14 1000000 1000000 19 1000000 26 1000000 1000000 17 19 1000000 16 17 1000000 
1000000 1000000 1000000 1000000 1000000 1000000 1000000 1000000 1000000 1000000 1000000 1000000 1000000 1000000 1000000 1000000 1000000 1000000 1000000 1000000 1000000 
1000000 1000000 1000000 1000000 1000000 1000000 1000000 1000000 1000000 1000000 1000000 1000000 1000000 1000000 1000000 1000000 1000000 1000000 1000000 1000000 1000000 
1000000 1000000 1000000 16 22 1000000 1000000 17 1000000 1000000 18 1000000 18 1000000 1000000 27 16 1000000 14 15 1000000 
1000000 1000000 1000000 16 12 1000000 1000000 17 1000000 1000000 17 1000000 20 1000000 1000000 16 27 1000000 13 15 1000000 
1000000 1000000 1000000 1000000 1000000 1000000 1000000 1000000 1000000 1000000 1000000 1000000 1000000 1000000 1000000 1000000 1000000 1000000 1000000 1000000 1000000 
1000000 1000000 1000000 13 15 1000000 1000000 12 1000000 1000000 17 1000000 18 1000000 1000000 18 14 1000000 26 19 1000000 
1000000 1000000 1000000 16 12 1000000 1000000 18 1000000 1000000 15 1000000 15 1000000 1000000 12 15 1000000 11 27 1000000 
1000000 1000000 1000000 1000000 1000000 1000000 1000000 1000000 1000000 1000000 1000000 1000000 1000000 1000000 1000000 1000000 1000000 1000000 1000000 1000000 1000000 
1000000 1000000 1000000 1000000 1000000 1000000 1000000 1000000 1000000 1000000 1000000 1000000 1000000 1000000 1000000 1000000 1000000 1000000 1000000 1000000 1000000 
1000000 27 11 1000000 17 1000000 1000000 16 14 1000000 1000000 10 1000000 17 1000000 15 15 1000000 1000000 14 1000000 
1000000 16 24 1000000 11 1000000 1000000 17 15 1000000 1000000 14 1000000 14 1000000 20 16 1000000 1000000 21 1000000 
1000000 1000000 1000000 1000000 1000000 1000000 1000000 1000000 1000000 1000000 1000000 1000000 1000000 1000000 1000000 1000000 1000000 1000000 1000000 1000000 1000000 
1000000 15 13 1000000 23 1000000 1000000 16 16 1000000 1000000 12 1000000 13 1000000 11 13 1000000 1000000 17 1000000 
1000000 1000000 1000000 1000000 1000000 1000000 1000000 1000000 1000000 1000000 1000000 1000000 1000000 1000000 1000000 1000000 1000000 1000000 1000000 1000000 1000000 
1000000 1000000 1000000 1000000 1000000 1000000 1000000 1000000 1000000 1000000 1000000 1000000 1000000 1000000 1000000 1000000 1000000 1000000 1000000 1000000 1000000 
1000000 20 22 1000000 19 1000000 1000000 31 14 1000000 1000000 19 1000000 11 1000000 13 17 1000000 1000000 14 1000000 
1000000 14 14 1000000 15 1000000 1000000 20 24 1000000 1000000 16 1000000 20 1000000 20 13 1000000 1000000 14 1000000 
1000000 1000000 1000000 1000000 1000000 1000000 1000000 1000000 1000000 1000000 1000000 1000000 1000000 1000000 1000000 1000000 1000000 1000000 1000000 1000000 1000000 
1000000 1000000 1000000 1000000 1000000 1000000 1000000 1000000 1000000 1000000 1000000 1000000 1000000 1000000 1000000 1000000 1000000 1000000 1000000 1000000 1000000 
1000000 17 17 1000000 15 1000000 1000000 17 19 1000000 1000000 25 1000000 16 1000000 15 14 1000000 1000000 18 1000000 
1000000 1000000 1000000 1000000 1000000 1000000 1000000 1000000 1000000 1000000 1000000 1000000 1000000 1000000 1000000 1000000 1000000 1000000 1000000 1000000 1000000 
1000000 17 20 1000000 18 1000000 1000000 22 14 1000000 1000000 19 1000000 30 1000000 15 16 1000000 1000000 19 1000000 
1000000 1000000 1000000 1000000 1000000 1000000 1000000 1000000 1000000 1000000 1000000 1000000 1000000 1000000 1000000 1000000 1000000 1000000 1000000 1000000 1000000 
1000000 13 11 1000000 16 1000000 1000000 18 20 1000000 1000000 10 1000000 15 1000000 25 13 1000000 1000000 20 1000000 
1000000 19 18 1000000 10 1000000 1000000 14 21 1000000 1000000 14 1000000 15 1000000 18 23 1000000 1000000 17 1000000 
1000000 1000000 1000000 1000000 1000000 1000000 1000000 1000000 1000000 1000000 1000000 1000000 1000000 1000000 1000000 1000000 1000000 1000000 1000000 1000000 1000000 
1000000 1000000 1000000 1000000 1000000 1000000 1000000 1000000 1000000 1000000 1000000 1000000 1000000 1000000 1000000 1000000 1000000 1000000 1000000 1000000 1000000 
1000000 16 11 1000000 18 1000000 1000000 17 10 1000000 1000000 15 1000000 17 1000000 14 22 1000000 1000000 24 1000000 
1000000 1000000 1000000 1000000 1000000 1000000 1000000 1000000 1000000 1000000 1000000 1000000 1000000 1000000 1000000 1000000 1000000 1000000 1000000 1000000 1000000 
1000000 1000000 1000000 1000000 1000000 1000000 1000000 1000000 1000000 1000000 1000000 1000000 1000000 1000000 1000000 1000000 1000000 1000000 1000000 1000000 1000000 
1000000 1000000 1000000 1000000 1000000 1000000 1000000 1000000 1000000 1000000 1000000 1000000 1000000 1000000 1000000 1000000 1000000 1000000 1000000 1000000 1000000 
1000000 1000000 26 1000000 1000000 16 1000000 1000000 19 1000000 18 1000000 1000000 15 13 1000000 15 16 1000000 16 13 
1000000 1000000 1000000 1000000 1000000 1000000 1000000 1000000 1000000 1000000 1000000 1000000 1000000 1000000 1000000 1000000 1000000 1000000 1000000 1000000 1000000 
1000000 1000000 1000000 1000000 1000000 1000000 1000000 1000000 1000000 1000000 1000000 1000000 1000000 1000000 1000000 1000000 1000000 1000000 1000000 1000000 1000000 
1000000 1000000 16 1000000 1000000 24 1000000 1000000 14 1000000 13 1000000 1000000 17 15 1000000 19 14 1000000 16 14 
1000000 1000000 1000000 1000000 1000000 1000000 1000000 1000000 1000000 1000000 1000000 1000000 1000000 1000000 1000000 1000000 1000000 1000000 1000000 1000000 1000000 
1000000 1000000 1000000 1000000 1000000 1000000 1000000 1000000 1000000 1000000 1000000 1000000 1000000 1000000 1000000 1000000 1000000 1000000 1000000 1000000 1000000 
1000000 1000000 13 1000000 1000000 10 1000000 1000000 24 1000000 14 1000000 1000000 20 12 1000000 18 14 1000000 16 16 
1000000 1000000 1000000 1000000 1000000 1000000 1000000 1000000 1000000 1000000 1000000 1000000 1000000 1000000 1000000 1000000 1000000 1000000 1000000 1000000 1000000 
1000000 1000000 19 1000000 1000000 13 1000000 1000000 16 1000000 25 1000000 1000000 13 17 1000000 16 14 1000000 15 15 
1000000 1000000 1000000 1000000 1000000 1000000 1000000 1000000 1000000 1000000 1000000 1000000 1000000 1000000 1000000 1000000 1000000 1000000 1000000 1000000 1000000 
1000000 1000000 1000000 1000000 1000000 1000000 1000000 1000000 1000000 1000000 1000000 1000000 1000000 1000000 1000000 1000000 1000000 1000000 1000000 1000000 1000000 
1000000 1000000 14 1000000 1000000 16 1000000 1000000 16 1000000 14 1000000 1000000 25 15 1000000 17 15 1000000 14 10 
1000000 1000000 13 1000000 1000000 14 1000000 1000000 14 1000000 14 1000000 1000000 10 25 1000000 14 15 1000000 16 19 
1000000 1000000 1000000 1000000 1000000 1000000 1000000 1000000 1000000 1000000 1000000 1000000 1000000 1000000 1000000 1000000 1000000 1000000 1000000 1000000 1000000 
1000000 1000000 21 1000000 1000000 14 1000000 1000000 15 1000000 16 1000000 1000000 16 17 1000000 28 15 1000000 15 15 
1000000 1000000 12 1000000 1000000 17 1000000 1000000 15 1000000 15 1000000 1000000 13 16 1000000 16 27 1000000 18 14 
1000000 1000000 1000000 1000000 1000000 1000000 1000000 1000000 1000000 1000000 1000000 1000000 1000000 1000000 1000000 1000000 1000000 1000000 1000000 1000000 1000000 
1000000 1000000 14 1000000 1000000 18 1000000 1000000 18 1000000 10 1000000 1000000 19 19 1000000 13 16 1000000 25 19 
1000000 1000000 17 1000000 1000000 14 1000000 1000000 15 1000000 18 1000000 1000000 16 15 1000000 13 13 1000000 17 26 
1000000 1000000 1000000 1000000 1000000 1000000 1000000 1000000 1000000 1000000 1000000 1000000 1000000 1000000 1000000 1000000 1000000 1000000 1000000 1000000 1000000 
1000000 1000000 1000000 1000000 1000000 1000000 1000000 1000000 1000000 1000000 1000000 1000000 1000000 1000000 1000000 1000000 1000000 1000000 1000000 1000000 1000000 
1000000 1000000 1000000 1000000 1000000 1000000 1000000 1000000 1000000 1000000 1000000 1000000 1000000 1000000 1000000 1000000 1000000 1000000 1000000 1000000 1000000 
1000000 1000000 1000000 1000000 1000000 1000000 1000000 1000000 1000000 1000000 1000000 1000000 1000000 1000000 1000000 1000000 1000000 1000000 1000000 1000000 1000000 
1000000 1000000 1000000 1000000 1000000 1000000 1000000 1000000 1000000 1000000 1000000 1000000 1000000 1000000 1000000 1000000 1000000 1000000 1000000 1000000 1000000 
1000000 1000000 1000000 1000000 1000000 27 1000000 1000000 18 1000000 1000000 16 1000000 1000000 11 1000000 1000000 13 1000000 1000000 13 
1000000 1000000 1000000 1000000 1000000 1000000 1000000 1000000 1000000 1000000 1000000 1000000 1000000 1000000 1000000 1000000 1000000 1000000 1000000 1000000 1000000 
1000000 1000000 1000000 1000000 1000000 1000000 1000000 1000000 1000000 1000000 1000000 1000000 1000000 1000000 1000000 1000000 1000000 1000000 1000000 1000000 1000000 
1000000 1000000 1000000 1000000 1000000 16 1000000 1000000 26 1000000 1000000 18 1000000 1000000 13 1000000 1000000 13 1000000 1000000 11 
1000000 1000000 1000000 1000000 1000000 1000000 1000000 1000000 1000000 1000000 1000000 1000000 1000000 1000000 1000000 1000000 1000000 1000000 1000000 1000000 1000000 
1000000 1000000 1000000 1000000 1000000 1000000 1000000 1000000 1000000 1000000 1000000 1000000 1000000 1000000 1000000 1000000 1000000 1000000 1000000 1000000 1000000 
1000000 1000000 1000000 1000000 1000000 14 1000000 1000000 16 1000000 1000000 27 1000000 1000000 10 1000000 1000000 10 1000000 1000000 19 
1000000 1000000 1000000 1000000 1000000 1000000 1000000 1000000 1000000 1000000 1000000 1000000 1000000 1000000 1000000 1000000 1000000 1000000 1000000 1000000 1000000 
1000000 1000000 1000000 1000000 1000000 1000000 1000000 1000000 1000000 1000000 1000000 1000000 1000000 1000000 1000000 1000000 1000000 1000000 1000000 1000000 1000000 
1000000 1000000 1000000 1000000 1000000 16 1000000 1000000 21 1000000 1000000 20 1000000 1000000 27 1000000 1000000 22 1000000 1000000 18 
1000000 1000000 1000000 1000000 1000000 1000000 1000000 1000000 1000000 1000000 1000000 1000000 1000000 1000000 1000000 1000000 1000000 1000000 1000000 1000000 1000000 
1000000 1000000 1000000 1000000 1000000 1000000 1000000 1000000 1000000 1000000 1000000 1000000 1000000 1000000 1000000 1000000 1000000 1000000 1000000 1000000 1000000 
1000000 1000000 1000000 1000000 1000000 20 1000000 1000000 13 1000000 1000000 17 1000000 1000000 17 1000000 1000000 26 1000000 1000000 13 
1000000 1000000 1000000 1000000 1000000 1000000 1000000 1000000 1000000 1000000 1000000 1000000 1000000 1000000 1000000 1000000 1000000 1000000 1000000 1000000 1000000 
1000000 1000000 1000000 1000000 1000000 1000000 1000000 1000000 1000000 1000000 1000000 1000000 1000000 1000000 1000000 1000000 1000000 1000000 1000000 1000000 1000000 
1000000 1000000 1000000 1000000 1000000 15 1000000 1000000 15 1000000 1000000 17 1000000 1000000 14 1000000 1000000 19 1000000 1000000 26 
1000000 1000000 1000000 1000000 1000000 1000000 1000000 1000000 1000000 1000000 1000000 1000000 1000000 1000000 1000000 1000000 1000000 1000000 1000000 1000000 1000000 
1000000 24 17 1000000 1000000 16 1000000 13 1000000 1000000 1000000 1000000 1000000 16 1000000 1000000 1000000 17 1000000 1000000 20 
1000000 20 23 1000000 1000000 15 1000000 13 1000000 1000000 1000000 1000000 1000000 22 1000000 1000000 1000000 16 1000000 1000000 12 
1000000 1000000 1000000 1000000 1000000 1000000 1000000 1000000 1000000 1000000 1000000 1000000 1000000 1000000 1000000 1000000 1000000 1000000 1000000 1000000 1000000 
1000000 1000000 1000000 1000000 1000000 1000000 1000000 1000000 1000000 1000000 1000000 1000000 1000000 1000000 1000000 1000000 1000000 1000000 1000000 1000000 1000000 
1000000 21 19 1000000 1000000 28 1000000 18 1000000 1000000 1000000 1000000 1000000 18 1000000 1000000 1000000 12 1000000 1000000 14 
1000000 1000000 1000000 1000000 1000000 1000000 1000000 1000000 1000000 1000000 1000000 1000000 1000000 1000000 1000000 1000000 1000000 1000000 1000000 1000000 1000000 
1000000 11 10 1000000 1000000 16 1000000 23 1000000 1000000 1000000 1000000 1000000 15 1000000 1000000 1000000 14 1000000 1000000 17 
1000000 1000000 1000000 1000000 1000000 1000000 1000000 1000000 1000000 1000000 1000000 1000000 1000000 1000000 1000000 1000000 1000000 1000000 1000000 1000000 1000000 
1000000 1000000 1000000 1000000 1000000 1000000 1000000 1000000 1000000 1000000 1000000 1000000 1000000 1000000 1000000 1000000 1000000 1000000 1000000 1000000 1000000 
1000000 1000000 1000000 1000000 1000000 1000000 1000000 1000000 1000000 1000000 1000000 1000000 1000000 1000000 1000000 1000000 1000000 1000000 1000000 1000000 1000000 
1000000 1000000 1000000 1000000 1000000 1000000 1000000 1000000 1000000 1000000 1000000 1000000 1000000 1000000 1000000 1000000 1000000 1000000 1000000 1000000 1000000 
1000000 1000000 1000000 1000000 1000000 1000000 1000000 1000000 1000000 1000000 1000000 1000000 1000000 1000000 1000000 1000000 1000000 1000000 1000000 1000000 1000000 
1000000 12 12 1000000 1000000 20 1000000 13 1000000 1000000 1000000 1000000 1000000 27 1000000 1000000 1000000 15 1000000 1000000 17 
1000000 1000000 1000000 1000000 1000000 1000000 1000000 1000000 1000000 1000000 1000000 1000000 1000000 1000000 1000000 1000000 1000000 1000000 1000000 1000000 1000000 
1000000 1000000 1000000 1000000 1000000 1000000 1000000 1000000 1000000 1000000 1000000 1000000 1000000 1000000 1000000 1000000 1000000 1000000 1000000 1000000 1000000 
1000000 1000000 1000000 1000000 1000000 1000000 1000000 1000000 1000000 1000000 1000000 1000000 1000000 1000000 1000000 1000000 1000000 1000000 1000000 1000000 1000000 
1000000 19 18 1000000 1000000 20 1000000 11 1000000 1000000 1000000 1000000 1000000 12 1000000 1000000 1000000 25 1000000 1000000 13 
1000000 1000000 1000000 1000000 1000000 1000000 1000000 1000000 1000000 1000000 1000000 1000000 1000000 1000000 1000000 1000000 1000000 1000000 1000000 1000000 1000000 
1000000 1000000 1000000 1000000 1000000 1000000 1000000 1000000 1000000 1000000 1000000 1000000 1000000 1000000 1000000 1000000 1000000 1000000 1000000 1000000 1000000 
1000000 19 15 1000000 1000000 14 1000000 20 1000000 1000000 1000000 1000000 1000000 16 1000000 1000000 1000000 13 1000000 1000000 26 
